NAME : OMNETRUN
COMMENT : 524.61
TYPE : CVRP
DIMENSION : 21
EDGE_WEIGHT_TYPE : EUC_2D
CAPACITY : 21
NODE_COORD_SECTION
1 0.107093 -0.77924
2 210.688 -2084.08
3 61.2882 -2538.37
4 165.644 -3405.44
5 54.2961 -3778.44
6 103.53 -4429.21
7 86.8373 -5169.07
8 378.814 -652.055
9 307.583 -1146.9
10 431.796 -1508.92
11 395.893 -2952.11
12 445.982 -3871.39
13 699.876 -1757.99
14 703.759 -2255.1
15 581.259 -2612.7
16 581.809 -4437.75
17 659.336 -5020.49
18 611.574 -5368.49
19 833.056 -263.461
20 782.01 -757.234
21 971.346 -1506.47
DEMAND_SECTION
1 0
2 1
3 1
4 1
5 1
6 1
7 1
8 1
9 1
10 1
11 1
12 1
13 1
14 1
15 1
16 1
17 1
18 1
19 1
20 1
21 1
DEPOT_SECTION
1
-1
EOF
